LibMLKEM/why3-cvc5/mlkem.adb_1532_22_assert_1.smt2
;; produced by cvc5.drv ;;
(set-logic ALL)
(set-info :smt-lib-version 2.6)
;;; generated by SMT-LIB2 driver
;;; SMT-LIB2 driver: bit-vectors, common part
;;; SMT-LIB2: integer arithmetic
;; "pow2"
(declare-fun pow2 (Int) Int)

(declare-const two_power_size_minus_one Int)

;; "two_power_size_minus_one_val"
(assert (= two_power_size_minus_one (pow2 (- 16 1))))

;; "min"
(define-fun min ((x Int) (y Int)) Int
  (ite (<= x y) x y))

;; "max"
(define-fun max ((x Int) (y Int)) Int
  (ite (<= x y) y x))

;; "Min_r"
(assert (forall ((x Int) (y Int)) (=> (<= y x) (= (min x y) y))))

;; "Max_l"
(assert (forall ((x Int) (y Int)) (=> (<= y x) (= (max x y) x))))

;; "Min_comm"
(assert (forall ((x Int) (y Int)) (= (min x y) (min y x))))

;; "Max_comm"
(assert (forall ((x Int) (y Int)) (= (max x y) (max y x))))

;; "Min_assoc"
(assert
  (forall ((x Int) (y Int) (z Int)) (= (min (min x y) z) (min x (min y z)))))

;; "Max_assoc"
(assert
  (forall ((x Int) (y Int) (z Int)) (= (max (max x y) z) (max x (max y z)))))

(declare-sort t 0)

;; "in_range"
(define-fun in_range ((x (_ BitVec 16))) Bool
  (and (bvule #x0000 x) (bvule x #x0D00)))

;; "to_rep"
(declare-fun to_rep (t) (_ BitVec 16))

;; "of_rep"
(declare-fun of_rep ((_ BitVec 16)) t)

;; "inversion_axiom"
(assert
  (forall ((x t)) (! (= (of_rep (to_rep x)) x) :pattern ((to_rep x)) )))

;; "range_axiom"
(assert (forall ((x t)) (! (in_range (to_rep x)) :pattern ((to_rep x)) )))

;; "coerce_axiom"
(assert
  (forall ((x (_ BitVec 16)))
    (! (let ((y (bvurem x #x0D01)))
         (=> (in_range y) (= (to_rep (of_rep x)) y))) :pattern ((to_rep
                                                                  (of_rep x))) )))

(declare-sort map1 0)

;; "has_bounds"
(declare-fun has_bounds (map1
  Int
  Int) Bool)

;; "get"
(declare-fun get (map1
  Int) t)

(declare-datatypes ((t__init_wrapper 0))
  (((t__init_wrapperqtmk (rec__value t)(us_attr__init Bool)))))

(declare-sort map2 0)

;; "has_bounds"
(declare-fun has_bounds1 (map2
  Int
  Int) Bool)

;; "get"
(declare-fun get1 (map2
  Int) t__init_wrapper)

;; "__is_initialized"
(define-fun us_is_initialized ((temp___expr_1111 map2)) Bool
  (forall ((temp___1112 Int))
    (=>
      (and (<= 0 temp___1112) (<= temp___1112 255))
      (= (us_attr__init (get1 temp___expr_1111 temp___1112)) true))))

;; "ntt"
(declare-fun ntt (map1) map1)

;; "ntt__function_guard"
(declare-fun ntt__function_guard (map1
  map1) Bool)

(declare-sort map3 0)

;; "has_bounds"
(declare-fun has_bounds2 (map3
  Int
  Int) Bool)

;; "get"
(declare-fun get2 (map3
  Int) map1)

(declare-const v map3)

(declare-sort map4 0)

;; "has_bounds"
(declare-fun has_bounds3 (map4
  Int
  Int) Bool)

;; "get"
(declare-fun get3 (map4
  Int) map2)

;; "set"
(declare-fun set (map4
  Int
  map2) map4)

;; "set_eq"
(assert
  (forall ((a map4) (i Int) (v1 map2))
    (! (= (get3 (set a i v1) i) v1) :pattern ((set a i v1)) )))

;; "set_neq"
(assert
  (forall ((a map4) (i Int) (v1 map2))
    (! (forall ((j Int))
         (! (=> (not (= i j)) (= (get3 (set a i v1) j) (get3 a j))) :pattern (
         (get3
           a
           j)) :pattern ((get3 (set a i v1) j)) )) :pattern ((set a i v1)) )))

;; "set_has_bounds"
(assert
  (forall ((a map4) (i Int) (f Int) (l Int) (v1 map2))
    (! (=>
         (and (<= f i) (<= i l))
         (=> (has_bounds3 a f l) (has_bounds3 (set a i v1) f l))) :pattern (
    (has_bounds3
      (set a i v1)
      f
      l)) )))

;; "convert"
(declare-fun convert (map1) map2)

;; "convert__def"
(assert
  (forall ((a map1))
    (let ((b (convert a)))
      (forall ((temp___199 Int))
        (and
          (= (us_attr__init
               (t__init_wrapperqtmk
                 (of_rep (to_rep (get a temp___199)))
                 true)) (us_attr__init (get1 b temp___199)))
          (= (to_rep
               (rec__value
                 (t__init_wrapperqtmk
                   (of_rep (to_rep (get a temp___199)))
                   true))) (to_rep (rec__value (get1 b temp___199)))))))))

;; "dynamic_invariant"
(define-fun dynamic_invariant ((temp___expr_1075 map3) (temp___is_init_1071 Bool) (temp___skip_constant_1072 Bool) (temp___do_toplevel_1073 Bool) (temp___do_typ_inv_1074 Bool)) Bool
  (and
    (has_bounds2 temp___expr_1075 0 2)
    (forall ((temp___1076 Int))
      (=>
        (and (<= 0 temp___1076) (<= temp___1076 2))
        (has_bounds (get2 temp___expr_1075 temp___1076) 0 255)))))

;; "dynamic_invariant_r"
(define-fun dynamic_invariant_r ((temp___expr_1130 map4) (temp___is_init_1126 Bool) (temp___skip_constant_1127 Bool) (temp___do_toplevel_1128 Bool) (temp___do_typ_inv_1129 Bool)) Bool
  (and
    (has_bounds3 temp___expr_1130 0 2)
    (forall ((temp___1131 Int))
      (=>
        (and (<= 0 temp___1131) (<= temp___1131 2))
        (has_bounds1 (get3 temp___expr_1130 temp___1131) 0 255)))))

;; "__is_initialized"
(define-fun us_is_initialized1 ((temp___expr_1134 map4)) Bool
  (forall ((temp___1135 Int))
    (=>
      (and (<= 0 temp___1135) (<= temp___1135 2))
      (us_is_initialized (get3 temp___expr_1134 temp___1135)))))

;; Goal "def'vc"
;; File "mlkem.adb", line 1521, characters 0-0
(assert
  (not
  (forall ((r map4))
    (=>
      (dynamic_invariant v true false true true)
      (=>
        (dynamic_invariant_r r false false true true)
        (forall ((r1 map4))
          (=>
            (exists ((i Int))
              (and
                (= i 0)
                (ite (= (and (ite (<= 0 i) true false) (ite (<= i 2)
                                                         true
                                                         false)) true)
                  (let ((o (get2 v i)))
                    (let ((temp___4952 (ntt o)))
                      (and
                        (and
                          (ntt__function_guard temp___4952 o)
                          (has_bounds temp___4952 0 255))
                        (exists ((r2 map4))
                          (and
                            (= r2 (set r i (convert temp___4952)))
                            (exists ((i1 Int))
                              (and
                                (forall ((j Int))
                                  (=>
                                    (and (<= 0 j) (<= j i1))
                                    (us_is_initialized (get3 r1 j))))
                                (and
                                  (= (and (ite (and
                                                 (dynamic_invariant_r
                                                   r1
                                                   false
                                                   true
                                                   true
                                                   true)
                                                 (forall ((temp___4957 Int))
                                                   (=>
                                                     (and
                                                       (<= 0 temp___4957)
                                                       (<= temp___4957 2))
                                                     (=>
                                                       (or
                                                         (< 2 temp___4957)
                                                         (or
                                                           (< temp___4957 0)
                                                           (< i1 temp___4957)))
                                                       (= (get3
                                                            r1
                                                            temp___4957) 
                                                       (get3
                                                         r
                                                         temp___4957))))))
                                            true
                                            false) (ite (and
                                                          (<= 0 i1)
                                                          (<= i1 2))
                                                     true
                                                     false)) true)
                                  (= i1 2)))))))))
                  (= r1 r))))
            (us_is_initialized1 r1))))))))

(check-sat)
